\ Model UAVstrike
\ LP format - for model browsing. Use MPS format to capture full model detail.
Minimize
  0.1 C140 + 0.1 C141 + 0.1 C142 + 0.1 C143 + 0.1 C144 + 0.1 C145 + 0.1 C146
   + 0.1 C147 + 0.1 C148 + C149
Subject To
 R0: C28 + C31 + C34 + C37 + C56 + C59 + C62 + C65 + C84 + C93 + C102
   + C111 = 1
 R1: C4 + C7 + C10 + C13 + C68 + C71 + C74 + C77 + C87 + C96 + C105 + C114
   = 1
 R2: C16 + C19 + C22 + C25 + C44 + C47 + C50 + C53 + C90 + C99 + C108
   + C117 = 1
 R3: C30 + C33 + C36 + C39 + C58 + C61 + C64 + C67 + C86 + C95 + C104
   + C113 = 1
 R4: C6 + C9 + C12 + C15 + C70 + C73 + C76 + C79 + C89 + C98 + C107 + C116
   = 1
 R5: C18 + C21 + C24 + C27 + C46 + C49 + C52 + C55 + C92 + C101 + C110
   + C119 = 1
 R6: C0 + C1 + C2 + C3 + C29 + C32 + C35 + C38 + C57 + C60 + C63 + C66
   + C85 + C94 + C103 + C112 = 1
 R7: C5 + C8 + C11 + C14 + C40 + C41 + C42 + C43 + C69 + C72 + C75 + C78
   + C88 + C97 + C106 + C115 = 1
 R8: C17 + C20 + C23 + C26 + C45 + C48 + C51 + C54 + C80 + C81 + C82 + C83
   + C91 + C100 + C109 + C118 = 1
 R9: C28 + C31 + C34 + C37 + C56 + C59 + C62 + C65 + C84 + C93 + C102
   + C111 <= 1
 R10: C4 + C7 + C10 + C13 + C68 + C71 + C74 + C77 + C87 + C96 + C105 + C114
   <= 1
 R11: C16 + C19 + C22 + C25 + C44 + C47 + C50 + C53 + C90 + C99 + C108
   + C117 <= 1
 R12: C30 + C33 + C36 + C39 + C58 + C61 + C64 + C67 + C86 + C95 + C104
   + C113 <= 1
 R13: C6 + C9 + C12 + C15 + C70 + C73 + C76 + C79 + C89 + C98 + C107 + C116
   <= 1
 R14: C18 + C21 + C24 + C27 + C46 + C49 + C52 + C55 + C92 + C101 + C110
   + C119 <= 1
 R15: C0 + C1 + C2 + C3 + C29 + C32 + C35 + C38 + C57 + C60 + C63 + C66
   + C85 + C94 + C103 + C112 <= 1
 R16: C5 + C8 + C11 + C14 + C40 + C41 + C42 + C43 + C69 + C72 + C75 + C78
   + C88 + C97 + C106 + C115 <= 1
 R17: C17 + C20 + C23 + C26 + C45 + C48 + C51 + C54 + C80 + C81 + C82 + C83
   + C91 + C100 + C109 + C118 <= 1
 R18: C28 + C29 + C30 + C56 + C57 + C58 + C84 + C85 + C86 <= 1
 R19: C4 + C5 + C6 + C68 + C69 + C70 + C87 + C88 + C89 <= 1
 R20: C16 + C17 + C18 + C44 + C45 + C46 + C90 + C91 + C92 <= 1
 R21: C31 + C32 + C33 + C59 + C60 + C61 + C93 + C94 + C95 <= 1
 R22: C7 + C8 + C9 + C71 + C72 + C73 + C96 + C97 + C98 <= 1
 R23: C19 + C20 + C21 + C47 + C48 + C49 + C99 + C100 + C101 <= 1
 R24: C34 + C35 + C36 + C62 + C63 + C64 + C102 + C103 + C104 <= 1
 R25: C10 + C11 + C12 + C74 + C75 + C76 + C105 + C106 + C107 <= 1
 R26: C22 + C23 + C24 + C50 + C51 + C52 + C108 + C109 + C110 <= 1
 R27: C37 + C38 + C39 + C65 + C66 + C67 + C111 + C112 + C113 <= 1
 R28: C13 + C14 + C15 + C77 + C78 + C79 + C114 + C115 + C116 <= 1
 R29: C25 + C26 + C27 + C53 + C54 + C55 + C117 + C118 + C119 <= 1
 R30: C120 + C124 + C128 + C132 <= 1
 R31: C121 + C125 + C129 + C133 <= 1
 R32: C122 + C126 + C130 + C134 <= 1
 R33: C123 + C127 + C131 + C135 <= 1
 R34: C28 + C29 + C30 + C56 + C57 + C58 + C120 <= 1
 R35: C4 + C5 + C6 + C68 + C69 + C70 + C124 <= 1
 R36: C16 + C17 + C18 + C44 + C45 + C46 + C128 <= 1
 R37: C31 + C32 + C33 + C59 + C60 + C61 + C121 <= 1
 R38: C7 + C8 + C9 + C71 + C72 + C73 + C125 <= 1
 R39: C19 + C20 + C21 + C47 + C48 + C49 + C129 <= 1
 R40: C34 + C35 + C36 + C62 + C63 + C64 + C122 <= 1
 R41: C10 + C11 + C12 + C74 + C75 + C76 + C126 <= 1
 R42: C22 + C23 + C24 + C50 + C51 + C52 + C130 <= 1
 R43: C37 + C38 + C39 + C65 + C66 + C67 + C123 <= 1
 R44: C13 + C14 + C15 + C77 + C78 + C79 + C127 <= 1
 R45: C25 + C26 + C27 + C53 + C54 + C55 + C131 <= 1
 R46: C0 + C5 + C17 + C29 + C40 + C45 + C57 + C69 + C80 + C85 + C88 + C91
   <= 1
 R47: C1 + C8 + C20 + C32 + C41 + C48 + C60 + C72 + C81 + C94 + C97 + C100
   <= 1
 R48: C2 + C11 + C23 + C35 + C42 + C51 + C63 + C75 + C82 + C103 + C106
   + C109 <= 1
 R49: C3 + C14 + C26 + C38 + C43 + C54 + C66 + C78 + C83 + C112 + C115
   + C118 <= 1
 R50: C29 + C30 + C57 + C58 + C85 + C86 <= 1
 R51: C5 + C6 + C69 + C70 + C88 + C89 <= 1
 R52: C17 + C18 + C45 + C46 + C91 + C92 <= 1
 R53: C32 + C33 + C60 + C61 + C94 + C95 <= 1
 R54: C8 + C9 + C72 + C73 + C97 + C98 <= 1
 R55: C20 + C21 + C48 + C49 + C100 + C101 <= 1
 R56: C35 + C36 + C63 + C64 + C103 + C104 <= 1
 R57: C11 + C12 + C75 + C76 + C106 + C107 <= 1
 R58: C23 + C24 + C51 + C52 + C109 + C110 <= 1
 R59: C38 + C39 + C66 + C67 + C112 + C113 <= 1
 R60: C14 + C15 + C78 + C79 + C115 + C116 <= 1
 R61: C26 + C27 + C54 + C55 + C118 + C119 <= 1
 R62: - C4 - C5 - C6 - C16 - C17 - C18 + C30 + C58 + C86 - C120 <= 0
 R63: - C0 - C4 - C5 - C6 - C16 - C17 - C18 + C28 + C56 + C84 - C120 <= 0
 R64: - C7 - C8 - C9 - C19 - C20 - C21 + C33 + C61 + C95 - C121 <= 0
 R65: - C1 - C7 - C8 - C9 - C19 - C20 - C21 + C31 + C59 + C93 - C121 <= 0
 R66: - C10 - C11 - C12 - C22 - C23 - C24 + C36 + C64 + C104 - C122 <= 0
 R67: - C2 - C10 - C11 - C12 - C22 - C23 - C24 + C34 + C62 + C102 - C122
   <= 0
 R68: - C13 - C14 - C15 - C25 - C26 - C27 + C39 + C67 + C113 - C123 <= 0
 R69: - C3 - C13 - C14 - C15 - C25 - C26 - C27 + C37 + C65 + C111 - C123
   <= 0
 R70: C6 - C28 - C29 - C30 - C44 - C45 - C46 + C70 + C89 - C124 <= 0
 R71: C4 - C28 - C29 - C30 - C40 - C44 - C45 - C46 + C68 + C87 - C124 <= 0
 R72: C9 - C31 - C32 - C33 - C47 - C48 - C49 + C73 + C98 - C125 <= 0
 R73: C7 - C31 - C32 - C33 - C41 - C47 - C48 - C49 + C71 + C96 - C125 <= 0
 R74: C12 - C34 - C35 - C36 - C50 - C51 - C52 + C76 + C107 - C126 <= 0
 R75: C10 - C34 - C35 - C36 - C42 - C50 - C51 - C52 + C74 + C105 - C126
   <= 0
 R76: C15 - C37 - C38 - C39 - C53 - C54 - C55 + C79 + C116 - C127 <= 0
 R77: C13 - C37 - C38 - C39 - C43 - C53 - C54 - C55 + C77 + C114 - C127
   <= 0
 R78: C18 + C46 - C56 - C57 - C58 - C68 - C69 - C70 + C92 - C128 <= 0
 R79: C16 + C44 - C56 - C57 - C58 - C68 - C69 - C70 - C80 + C90 - C128
   <= 0
 R80: C21 + C49 - C59 - C60 - C61 - C71 - C72 - C73 + C101 - C129 <= 0
 R81: C19 + C47 - C59 - C60 - C61 - C71 - C72 - C73 - C81 + C99 - C129
   <= 0
 R82: C24 + C52 - C62 - C63 - C64 - C74 - C75 - C76 + C110 - C130 <= 0
 R83: C22 + C50 - C62 - C63 - C64 - C74 - C75 - C76 - C82 + C108 - C130
   <= 0
 R84: C27 + C55 - C65 - C66 - C67 - C77 - C78 - C79 + C119 - C131 <= 0
 R85: C25 + C53 - C65 - C66 - C67 - C77 - C78 - C79 - C83 + C117 - C131
   <= 0
 R86: C0 + C4 + C5 + C6 + C16 + C17 + C18 + C29 + C57 + C85 + C120 <= 1
 R87: C4 + C5 + C6 + C16 + C17 + C18 - C28 - C29 - C30 - C56 - C57 - C58
   - C84 - C85 - C86 + C120 <= 0
 R88: C1 + C7 + C8 + C9 + C19 + C20 + C21 + C32 + C60 + C94 + C121 <= 1
 R89: C7 + C8 + C9 + C19 + C20 + C21 - C31 - C32 - C33 - C59 - C60 - C61
   - C93 - C94 - C95 + C121 <= 0
 R90: C2 + C10 + C11 + C12 + C22 + C23 + C24 + C35 + C63 + C103 + C122
   <= 1
 R91: C10 + C11 + C12 + C22 + C23 + C24 - C34 - C35 - C36 - C62 - C63 - C64
   - C102 - C103 - C104 + C122 <= 0
 R92: C3 + C13 + C14 + C15 + C25 + C26 + C27 + C38 + C66 + C112 + C123
   <= 1
 R93: C13 + C14 + C15 + C25 + C26 + C27 - C37 - C38 - C39 - C65 - C66 - C67
   - C111 - C112 - C113 + C123 <= 0
 R94: C5 + C28 + C29 + C30 + C40 + C44 + C45 + C46 + C69 + C88 + C124 <= 1
 R95: - C4 - C5 - C6 + C28 + C29 + C30 + C44 + C45 + C46 - C68 - C69 - C70
   - C87 - C88 - C89 + C124 <= 0
 R96: C8 + C31 + C32 + C33 + C41 + C47 + C48 + C49 + C72 + C97 + C125 <= 1
 R97: - C7 - C8 - C9 + C31 + C32 + C33 + C47 + C48 + C49 - C71 - C72 - C73
   - C96 - C97 - C98 + C125 <= 0
 R98: C11 + C34 + C35 + C36 + C42 + C50 + C51 + C52 + C75 + C106 + C126
   <= 1
 R99: - C10 - C11 - C12 + C34 + C35 + C36 + C50 + C51 + C52 - C74 - C75
   - C76 - C105 - C106 - C107 + C126 <= 0
 R100: C14 + C37 + C38 + C39 + C43 + C53 + C54 + C55 + C78 + C115 + C127
   <= 1
 R101: - C13 - C14 - C15 + C37 + C38 + C39 + C53 + C54 + C55 - C77 - C78
   - C79 - C114 - C115 - C116 + C127 <= 0
 R102: C17 + C45 + C56 + C57 + C58 + C68 + C69 + C70 + C80 + C91 + C128
   <= 1
 R103: - C16 - C17 - C18 - C44 - C45 - C46 + C56 + C57 + C58 + C68 + C69
   + C70 - C90 - C91 - C92 + C128 <= 0
 R104: C20 + C48 + C59 + C60 + C61 + C71 + C72 + C73 + C81 + C100 + C129
   <= 1
 R105: - C19 - C20 - C21 - C47 - C48 - C49 + C59 + C60 + C61 + C71 + C72
   + C73 - C99 - C100 - C101 + C129 <= 0
 R106: C23 + C51 + C62 + C63 + C64 + C74 + C75 + C76 + C82 + C109 + C130
   <= 1
 R107: - C22 - C23 - C24 - C50 - C51 - C52 + C62 + C63 + C64 + C74 + C75
   + C76 - C108 - C109 - C110 + C130 <= 0
 R108: C26 + C54 + C65 + C66 + C67 + C77 + C78 + C79 + C83 + C118 + C131
   <= 1
 R109: - C25 - C26 - C27 - C53 - C54 - C55 + C65 + C66 + C67 + C77 + C78
   + C79 - C117 - C118 - C119 + C131 <= 0
 R110: C84 + C85 + C86 + C87 + C88 + C89 + C90 + C91 + C92 + C132 = 1
 R111: C93 + C94 + C95 + C96 + C97 + C98 + C99 + C100 + C101 + C133 = 1
 R112: C102 + C103 + C104 + C105 + C106 + C107 + C108 + C109 + C110 + C134
   = 1
 R113: C111 + C112 + C113 + C114 + C115 + C116 + C117 + C118 + C119 + C135
   = 1
 R114: C0 - C28 - C56 - C84 <= 0
 R115: C1 - C31 - C59 - C93 <= 0
 R116: C2 - C34 - C62 - C102 <= 0
 R117: C3 - C37 - C65 - C111 <= 0
 R118: - C4 + C40 - C68 - C87 <= 0
 R119: - C7 + C41 - C71 - C96 <= 0
 R120: - C10 + C42 - C74 - C105 <= 0
 R121: - C13 + C43 - C77 - C114 <= 0
 R122: - C16 - C44 + C80 - C90 <= 0
 R123: - C19 - C47 + C81 - C99 <= 0
 R124: - C22 - C50 + C82 - C108 <= 0
 R125: - C25 - C53 + C83 - C117 <= 0
 R126: 400 C4 + 400 C28 + 400 C56 + 400 C84 - C140 + C143 <= 830
 R127: - 400 C4 - 400 C28 - 400 C56 - 400 C84 - C140 + C143 >= -770
 R128: 400 C4 + 400 C30 + 400 C58 + 400 C86 - C142 + C143 <= 830
 R129: - 400 C4 - 400 C30 - 400 C58 - 400 C86 - C142 + C143 >= -770
 R130: 400 C6 + 400 C28 + 400 C56 + 400 C84 - C140 + C145 <= 813
 R131: - 400 C6 - 400 C28 - 400 C56 - 400 C84 - C140 + C145 >= -787
 R132: 400 C6 + 400 C30 + 400 C58 + 400 C86 - C142 + C145 <= 813
 R133: - 400 C6 - 400 C30 - 400 C58 - 400 C86 - C142 + C145 >= -787
 R134: 400 C7 + 400 C31 + 400 C59 + 400 C93 - C140 + C143 <= 825
 R135: - 400 C7 - 400 C31 - 400 C59 - 400 C93 - C140 + C143 >= -775
 R136: 400 C7 + 400 C33 + 400 C61 + 400 C95 - C142 + C143 <= 825
 R137: - 400 C7 - 400 C33 - 400 C61 - 400 C95 - C142 + C143 >= -775
 R138: 400 C9 + 400 C31 + 400 C59 + 400 C93 - C140 + C145 <= 810
 R139: - 400 C9 - 400 C31 - 400 C59 - 400 C93 - C140 + C145 >= -790
 R140: 400 C9 + 400 C33 + 400 C61 + 400 C95 - C142 + C145 <= 810
 R141: - 400 C9 - 400 C33 - 400 C61 - 400 C95 - C142 + C145 >= -790
 R142: 400 C10 + 400 C34 + 400 C62 + 400 C102 - C140 + C143 <= 820
 R143: - 400 C10 - 400 C34 - 400 C62 - 400 C102 - C140 + C143 >= -780
 R144: 400 C10 + 400 C36 + 400 C64 + 400 C104 - C142 + C143 <= 820
 R145: - 400 C10 - 400 C36 - 400 C64 - 400 C104 - C142 + C143 >= -780
 R146: 400 C12 + 400 C34 + 400 C62 + 400 C102 - C140 + C145 <= 830
 R147: - 400 C12 - 400 C34 - 400 C62 - 400 C102 - C140 + C145 >= -770
 R148: 400 C12 + 400 C36 + 400 C64 + 400 C104 - C142 + C145 <= 830
 R149: - 400 C12 - 400 C36 - 400 C64 - 400 C104 - C142 + C145 >= -770
 R150: 400 C13 + 400 C37 + 400 C65 + 400 C111 - C140 + C143 <= 829
 R151: - 400 C13 - 400 C37 - 400 C65 - 400 C111 - C140 + C143 >= -771
 R152: 400 C13 + 400 C39 + 400 C67 + 400 C113 - C142 + C143 <= 829
 R153: - 400 C13 - 400 C39 - 400 C67 - 400 C113 - C142 + C143 >= -771
 R154: 400 C15 + 400 C37 + 400 C65 + 400 C111 - C140 + C145 <= 818
 R155: - 400 C15 - 400 C37 - 400 C65 - 400 C111 - C140 + C145 >= -782
 R156: 400 C15 + 400 C39 + 400 C67 + 400 C113 - C142 + C145 <= 818
 R157: - 400 C15 - 400 C39 - 400 C67 - 400 C113 - C142 + C145 >= -782
 R158: 400 C16 + 400 C28 + 400 C56 + 400 C84 - C140 + C146 <= 817
 R159: - 400 C16 - 400 C28 - 400 C56 - 400 C84 - C140 + C146 >= -783
 R160: 400 C16 + 400 C30 + 400 C58 + 400 C86 - C142 + C146 <= 817
 R161: - 400 C16 - 400 C30 - 400 C58 - 400 C86 - C142 + C146 >= -783
 R162: 400 C18 + 400 C28 + 400 C56 + 400 C84 - C140 + C148 <= 801
 R163: - 400 C18 - 400 C28 - 400 C56 - 400 C84 - C140 + C148 >= -799
 R164: 400 C18 + 400 C30 + 400 C58 + 400 C86 - C142 + C148 <= 801
 R165: - 400 C18 - 400 C30 - 400 C58 - 400 C86 - C142 + C148 >= -799
 R166: 400 C19 + 400 C31 + 400 C59 + 400 C93 - C140 + C146 <= 813
 R167: - 400 C19 - 400 C31 - 400 C59 - 400 C93 - C140 + C146 >= -787
 R168: 400 C19 + 400 C33 + 400 C61 + 400 C95 - C142 + C146 <= 813
 R169: - 400 C19 - 400 C33 - 400 C61 - 400 C95 - C142 + C146 >= -787
 R170: 400 C21 + 400 C31 + 400 C59 + 400 C93 - C140 + C148 <= 821
 R171: - 400 C21 - 400 C31 - 400 C59 - 400 C93 - C140 + C148 >= -779
 R172: 400 C21 + 400 C33 + 400 C61 + 400 C95 - C142 + C148 <= 821
 R173: - 400 C21 - 400 C33 - 400 C61 - 400 C95 - C142 + C148 >= -779
 R174: 400 C22 + 400 C34 + 400 C62 + 400 C102 - C140 + C146 <= 804
 R175: - 400 C22 - 400 C34 - 400 C62 - 400 C102 - C140 + C146 >= -796
 R176: 400 C22 + 400 C36 + 400 C64 + 400 C104 - C142 + C146 <= 804
 R177: - 400 C22 - 400 C36 - 400 C64 - 400 C104 - C142 + C146 >= -796
 R178: 400 C24 + 400 C34 + 400 C62 + 400 C102 - C140 + C148 <= 805
 R179: - 400 C24 - 400 C34 - 400 C62 - 400 C102 - C140 + C148 >= -795
 R180: 400 C24 + 400 C36 + 400 C64 + 400 C104 - C142 + C148 <= 805
 R181: - 400 C24 - 400 C36 - 400 C64 - 400 C104 - C142 + C148 >= -795
 R182: 400 C25 + 400 C37 + 400 C65 + 400 C111 - C140 + C146 <= 803
 R183: - 400 C25 - 400 C37 - 400 C65 - 400 C111 - C140 + C146 >= -797
 R184: 400 C25 + 400 C39 + 400 C67 + 400 C113 - C142 + C146 <= 803
 R185: - 400 C25 - 400 C39 - 400 C67 - 400 C113 - C142 + C146 >= -797
 R186: 400 C27 + 400 C37 + 400 C65 + 400 C111 - C140 + C148 <= 829
 R187: - 400 C27 - 400 C37 - 400 C65 - 400 C111 - C140 + C148 >= -771
 R188: 400 C27 + 400 C39 + 400 C67 + 400 C113 - C142 + C148 <= 829
 R189: - 400 C27 - 400 C39 - 400 C67 - 400 C113 - C142 + C148 >= -771
 R190: 400 C4 + 400 C28 + 400 C68 + 400 C87 + C140 - C143 <= 814
 R191: - 400 C4 - 400 C28 - 400 C68 - 400 C87 + C140 - C143 >= -786
 R192: 400 C6 + 400 C28 + 400 C70 + 400 C89 + C140 - C145 <= 814
 R193: - 400 C6 - 400 C28 - 400 C70 - 400 C89 + C140 - C145 >= -786
 R194: 400 C4 + 400 C30 + 400 C68 + 400 C87 + C142 - C143 <= 801
 R195: - 400 C4 - 400 C30 - 400 C68 - 400 C87 + C142 - C143 >= -799
 R196: 400 C6 + 400 C30 + 400 C70 + 400 C89 + C142 - C145 <= 801
 R197: - 400 C6 - 400 C30 - 400 C70 - 400 C89 + C142 - C145 >= -799
 R198: 400 C7 + 400 C31 + 400 C71 + 400 C96 + C140 - C143 <= 805
 R199: - 400 C7 - 400 C31 - 400 C71 - 400 C96 + C140 - C143 >= -795
 R200: 400 C9 + 400 C31 + 400 C73 + 400 C98 + C140 - C145 <= 805
 R201: - 400 C9 - 400 C31 - 400 C73 - 400 C98 + C140 - C145 >= -795
 R202: 400 C7 + 400 C33 + 400 C71 + 400 C96 + C142 - C143 <= 818
 R203: - 400 C7 - 400 C33 - 400 C71 - 400 C96 + C142 - C143 >= -782
 R204: 400 C9 + 400 C33 + 400 C73 + 400 C98 + C142 - C145 <= 818
 R205: - 400 C9 - 400 C33 - 400 C73 - 400 C98 + C142 - C145 >= -782
 R206: 400 C10 + 400 C34 + 400 C74 + 400 C105 + C140 - C143 <= 808
 R207: - 400 C10 - 400 C34 - 400 C74 - 400 C105 + C140 - C143 >= -792
 R208: 400 C12 + 400 C34 + 400 C76 + 400 C107 + C140 - C145 <= 808
 R209: - 400 C12 - 400 C34 - 400 C76 - 400 C107 + C140 - C145 >= -792
 R210: 400 C10 + 400 C36 + 400 C74 + 400 C105 + C142 - C143 <= 810
 R211: - 400 C10 - 400 C36 - 400 C74 - 400 C105 + C142 - C143 >= -790
 R212: 400 C12 + 400 C36 + 400 C76 + 400 C107 + C142 - C145 <= 810
 R213: - 400 C12 - 400 C36 - 400 C76 - 400 C107 + C142 - C145 >= -790
 R214: 400 C13 + 400 C37 + 400 C77 + 400 C114 + C140 - C143 <= 827
 R215: - 400 C13 - 400 C37 - 400 C77 - 400 C114 + C140 - C143 >= -773
 R216: 400 C15 + 400 C37 + 400 C79 + 400 C116 + C140 - C145 <= 827
 R217: - 400 C15 - 400 C37 - 400 C79 - 400 C116 + C140 - C145 >= -773
 R218: 400 C13 + 400 C39 + 400 C77 + 400 C114 + C142 - C143 <= 829
 R219: - 400 C13 - 400 C39 - 400 C77 - 400 C114 + C142 - C143 >= -771
 R220: 400 C15 + 400 C39 + 400 C79 + 400 C116 + C142 - C145 <= 829
 R221: - 400 C15 - 400 C39 - 400 C79 - 400 C116 + C142 - C145 >= -771
 R222: 400 C4 + 400 C44 + 400 C68 + 400 C87 - C143 + C146 <= 818
 R223: - 400 C4 - 400 C44 - 400 C68 - 400 C87 - C143 + C146 >= -782
 R224: 400 C6 + 400 C44 + 400 C70 + 400 C89 - C145 + C146 <= 818
 R225: - 400 C6 - 400 C44 - 400 C70 - 400 C89 - C145 + C146 >= -782
 R226: 400 C4 + 400 C46 + 400 C68 + 400 C87 - C143 + C148 <= 806
 R227: - 400 C4 - 400 C46 - 400 C68 - 400 C87 - C143 + C148 >= -794
 R228: 400 C6 + 400 C46 + 400 C70 + 400 C89 - C145 + C148 <= 806
 R229: - 400 C6 - 400 C46 - 400 C70 - 400 C89 - C145 + C148 >= -794
 R230: 400 C7 + 400 C47 + 400 C71 + 400 C96 - C143 + C146 <= 826
 R231: - 400 C7 - 400 C47 - 400 C71 - 400 C96 - C143 + C146 >= -774
 R232: 400 C9 + 400 C47 + 400 C73 + 400 C98 - C145 + C146 <= 826
 R233: - 400 C9 - 400 C47 - 400 C73 - 400 C98 - C145 + C146 >= -774
 R234: 400 C7 + 400 C49 + 400 C71 + 400 C96 - C143 + C148 <= 812
 R235: - 400 C7 - 400 C49 - 400 C71 - 400 C96 - C143 + C148 >= -788
 R236: 400 C9 + 400 C49 + 400 C73 + 400 C98 - C145 + C148 <= 812
 R237: - 400 C9 - 400 C49 - 400 C73 - 400 C98 - C145 + C148 >= -788
 R238: 400 C10 + 400 C50 + 400 C74 + 400 C105 - C143 + C146 <= 821
 R239: - 400 C10 - 400 C50 - 400 C74 - 400 C105 - C143 + C146 >= -779
 R240: 400 C12 + 400 C50 + 400 C76 + 400 C107 - C145 + C146 <= 821
 R241: - 400 C12 - 400 C50 - 400 C76 - 400 C107 - C145 + C146 >= -779
 R242: 400 C10 + 400 C52 + 400 C74 + 400 C105 - C143 + C148 <= 816
 R243: - 400 C10 - 400 C52 - 400 C74 - 400 C105 - C143 + C148 >= -784
 R244: 400 C12 + 400 C52 + 400 C76 + 400 C107 - C145 + C148 <= 816
 R245: - 400 C12 - 400 C52 - 400 C76 - 400 C107 - C145 + C148 >= -784
 R246: 400 C13 + 400 C53 + 400 C77 + 400 C114 - C143 + C146 <= 815
 R247: - 400 C13 - 400 C53 - 400 C77 - 400 C114 - C143 + C146 >= -785
 R248: 400 C15 + 400 C53 + 400 C79 + 400 C116 - C145 + C146 <= 815
 R249: - 400 C15 - 400 C53 - 400 C79 - 400 C116 - C145 + C146 >= -785
 R250: 400 C13 + 400 C55 + 400 C77 + 400 C114 - C143 + C148 <= 829
 R251: - 400 C13 - 400 C55 - 400 C77 - 400 C114 - C143 + C148 >= -771
 R252: 400 C15 + 400 C55 + 400 C79 + 400 C116 - C145 + C148 <= 829
 R253: - 400 C15 - 400 C55 - 400 C79 - 400 C116 - C145 + C148 >= -771
 R254: 400 C16 + 400 C44 + 400 C56 + 400 C90 + C140 - C146 <= 830
 R255: - 400 C16 - 400 C44 - 400 C56 - 400 C90 + C140 - C146 >= -770
 R256: 400 C18 + 400 C46 + 400 C56 + 400 C92 + C140 - C148 <= 830
 R257: - 400 C18 - 400 C46 - 400 C56 - 400 C92 + C140 - C148 >= -770
 R258: 400 C16 + 400 C44 + 400 C58 + 400 C90 + C142 - C146 <= 823
 R259: - 400 C16 - 400 C44 - 400 C58 - 400 C90 + C142 - C146 >= -777
 R260: 400 C18 + 400 C46 + 400 C58 + 400 C92 + C142 - C148 <= 823
 R261: - 400 C18 - 400 C46 - 400 C58 - 400 C92 + C142 - C148 >= -777
 R262: 400 C19 + 400 C47 + 400 C59 + 400 C99 + C140 - C146 <= 808
 R263: - 400 C19 - 400 C47 - 400 C59 - 400 C99 + C140 - C146 >= -792
 R264: 400 C21 + 400 C49 + 400 C59 + 400 C101 + C140 - C148 <= 808
 R265: - 400 C21 - 400 C49 - 400 C59 - 400 C101 + C140 - C148 >= -792
 R266: 400 C19 + 400 C47 + 400 C61 + 400 C99 + C142 - C146 <= 814
 R267: - 400 C19 - 400 C47 - 400 C61 - 400 C99 + C142 - C146 >= -786
 R268: 400 C21 + 400 C49 + 400 C61 + 400 C101 + C142 - C148 <= 814
 R269: - 400 C21 - 400 C49 - 400 C61 - 400 C101 + C142 - C148 >= -786
 R270: 400 C22 + 400 C50 + 400 C62 + 400 C108 + C140 - C146 <= 805
 R271: - 400 C22 - 400 C50 - 400 C62 - 400 C108 + C140 - C146 >= -795
 R272: 400 C24 + 400 C52 + 400 C62 + 400 C110 + C140 - C148 <= 805
 R273: - 400 C24 - 400 C52 - 400 C62 - 400 C110 + C140 - C148 >= -795
 R274: 400 C22 + 400 C50 + 400 C64 + 400 C108 + C142 - C146 <= 829
 R275: - 400 C22 - 400 C50 - 400 C64 - 400 C108 + C142 - C146 >= -771
 R276: 400 C24 + 400 C52 + 400 C64 + 400 C110 + C142 - C148 <= 829
 R277: - 400 C24 - 400 C52 - 400 C64 - 400 C110 + C142 - C148 >= -771
 R278: 400 C25 + 400 C53 + 400 C65 + 400 C117 + C140 - C146 <= 813
 R279: - 400 C25 - 400 C53 - 400 C65 - 400 C117 + C140 - C146 >= -787
 R280: 400 C27 + 400 C55 + 400 C65 + 400 C119 + C140 - C148 <= 813
 R281: - 400 C27 - 400 C55 - 400 C65 - 400 C119 + C140 - C148 >= -787
 R282: 400 C25 + 400 C53 + 400 C67 + 400 C117 + C142 - C146 <= 829
 R283: - 400 C25 - 400 C53 - 400 C67 - 400 C117 + C142 - C146 >= -771
 R284: 400 C27 + 400 C55 + 400 C67 + 400 C119 + C142 - C148 <= 829
 R285: - 400 C27 - 400 C55 - 400 C67 - 400 C119 + C142 - C148 >= -771
 R286: 400 C16 + 400 C44 + 400 C68 + 400 C90 + C143 - C146 <= 816
 R287: - 400 C16 - 400 C44 - 400 C68 - 400 C90 + C143 - C146 >= -784
 R288: 400 C18 + 400 C46 + 400 C68 + 400 C92 + C143 - C148 <= 816
 R289: - 400 C18 - 400 C46 - 400 C68 - 400 C92 + C143 - C148 >= -784
 R290: 400 C16 + 400 C44 + 400 C70 + 400 C90 + C145 - C146 <= 818
 R291: - 400 C16 - 400 C44 - 400 C70 - 400 C90 + C145 - C146 >= -782
 R292: 400 C18 + 400 C46 + 400 C70 + 400 C92 + C145 - C148 <= 818
 R293: - 400 C18 - 400 C46 - 400 C70 - 400 C92 + C145 - C148 >= -782
 R294: 400 C19 + 400 C47 + 400 C71 + 400 C99 + C143 - C146 <= 807
 R295: - 400 C19 - 400 C47 - 400 C71 - 400 C99 + C143 - C146 >= -793
 R296: 400 C21 + 400 C49 + 400 C71 + 400 C101 + C143 - C148 <= 807
 R297: - 400 C21 - 400 C49 - 400 C71 - 400 C101 + C143 - C148 >= -793
 R298: 400 C19 + 400 C47 + 400 C73 + 400 C99 + C145 - C146 <= 818
 R299: - 400 C19 - 400 C47 - 400 C73 - 400 C99 + C145 - C146 >= -782
 R300: 400 C21 + 400 C49 + 400 C73 + 400 C101 + C145 - C148 <= 818
 R301: - 400 C21 - 400 C49 - 400 C73 - 400 C101 + C145 - C148 >= -782
 R302: 400 C22 + 400 C50 + 400 C74 + 400 C108 + C143 - C146 <= 806
 R303: - 400 C22 - 400 C50 - 400 C74 - 400 C108 + C143 - C146 >= -794
 R304: 400 C24 + 400 C52 + 400 C74 + 400 C110 + C143 - C148 <= 806
 R305: - 400 C24 - 400 C52 - 400 C74 - 400 C110 + C143 - C148 >= -794
 R306: 400 C22 + 400 C50 + 400 C76 + 400 C108 + C145 - C146 <= 812
 R307: - 400 C22 - 400 C50 - 400 C76 - 400 C108 + C145 - C146 >= -788
 R308: 400 C24 + 400 C52 + 400 C76 + 400 C110 + C145 - C148 <= 812
 R309: - 400 C24 - 400 C52 - 400 C76 - 400 C110 + C145 - C148 >= -788
 R310: 400 C25 + 400 C53 + 400 C77 + 400 C117 + C143 - C146 <= 808
 R311: - 400 C25 - 400 C53 - 400 C77 - 400 C117 + C143 - C146 >= -792
 R312: 400 C27 + 400 C55 + 400 C77 + 400 C119 + C143 - C148 <= 808
 R313: - 400 C27 - 400 C55 - 400 C77 - 400 C119 + C143 - C148 >= -792
 R314: 400 C25 + 400 C53 + 400 C79 + 400 C117 + C145 - C146 <= 809
 R315: - 400 C25 - 400 C53 - 400 C79 - 400 C117 + C145 - C146 >= -791
 R316: 400 C27 + 400 C55 + 400 C79 + 400 C119 + C145 - C148 <= 809
 R317: - 400 C27 - 400 C55 - 400 C79 - 400 C119 + C145 - C148 >= -791
 R318: 400 C5 + 400 C28 + 400 C56 + 400 C84 - C140 + C144 <= 814
 R319: - 400 C5 - 400 C28 - 400 C56 - 400 C84 - C140 + C144 >= -786
 R320: 400 C5 + 400 C30 + 400 C58 + 400 C86 - C142 + C144 <= 814
 R321: - 400 C5 - 400 C30 - 400 C58 - 400 C86 - C142 + C144 >= -786
 R322: 400 C8 + 400 C31 + 400 C59 + 400 C93 - C140 + C144 <= 812
 R323: - 400 C8 - 400 C31 - 400 C59 - 400 C93 - C140 + C144 >= -788
 R324: 400 C8 + 400 C33 + 400 C61 + 400 C95 - C142 + C144 <= 812
 R325: - 400 C8 - 400 C33 - 400 C61 - 400 C95 - C142 + C144 >= -788
 R326: 400 C11 + 400 C34 + 400 C62 + 400 C102 - C140 + C144 <= 818
 R327: - 400 C11 - 400 C34 - 400 C62 - 400 C102 - C140 + C144 >= -782
 R328: 400 C11 + 400 C36 + 400 C64 + 400 C104 - C142 + C144 <= 818
 R329: - 400 C11 - 400 C36 - 400 C64 - 400 C104 - C142 + C144 >= -782
 R330: 400 C14 + 400 C37 + 400 C65 + 400 C111 - C140 + C144 <= 815
 R331: - 400 C14 - 400 C37 - 400 C65 - 400 C111 - C140 + C144 >= -785
 R332: 400 C14 + 400 C39 + 400 C67 + 400 C113 - C142 + C144 <= 815
 R333: - 400 C14 - 400 C39 - 400 C67 - 400 C113 - C142 + C144 >= -785
 R334: 400 C17 + 400 C28 + 400 C56 + 400 C84 - C140 + C147 <= 808
 R335: - 400 C17 - 400 C28 - 400 C56 - 400 C84 - C140 + C147 >= -792
 R336: 400 C17 + 400 C30 + 400 C58 + 400 C86 - C142 + C147 <= 808
 R337: - 400 C17 - 400 C30 - 400 C58 - 400 C86 - C142 + C147 >= -792
 R338: 400 C20 + 400 C31 + 400 C59 + 400 C93 - C140 + C147 <= 801
 R339: - 400 C20 - 400 C31 - 400 C59 - 400 C93 - C140 + C147 >= -799
 R340: 400 C20 + 400 C33 + 400 C61 + 400 C95 - C142 + C147 <= 801
 R341: - 400 C20 - 400 C33 - 400 C61 - 400 C95 - C142 + C147 >= -799
 R342: 400 C23 + 400 C34 + 400 C62 + 400 C102 - C140 + C147 <= 823
 R343: - 400 C23 - 400 C34 - 400 C62 - 400 C102 - C140 + C147 >= -777
 R344: 400 C23 + 400 C36 + 400 C64 + 400 C104 - C142 + C147 <= 823
 R345: - 400 C23 - 400 C36 - 400 C64 - 400 C104 - C142 + C147 >= -777
 R346: 400 C26 + 400 C37 + 400 C65 + 400 C111 - C140 + C147 <= 804
 R347: - 400 C26 - 400 C37 - 400 C65 - 400 C111 - C140 + C147 >= -796
 R348: 400 C26 + 400 C39 + 400 C67 + 400 C113 - C142 + C147 <= 804
 R349: - 400 C26 - 400 C39 - 400 C67 - 400 C113 - C142 + C147 >= -796
 R350: 400 C4 + 400 C29 + 400 C68 + 400 C87 + C141 - C143 <= 819
 R351: - 400 C4 - 400 C29 - 400 C68 - 400 C87 + C141 - C143 >= -781
 R352: 400 C6 + 400 C29 + 400 C70 + 400 C89 + C141 - C145 <= 819
 R353: - 400 C6 - 400 C29 - 400 C70 - 400 C89 + C141 - C145 >= -781
 R354: 400 C7 + 400 C32 + 400 C71 + 400 C96 + C141 - C143 <= 830
 R355: - 400 C7 - 400 C32 - 400 C71 - 400 C96 + C141 - C143 >= -770
 R356: 400 C9 + 400 C32 + 400 C73 + 400 C98 + C141 - C145 <= 830
 R357: - 400 C9 - 400 C32 - 400 C73 - 400 C98 + C141 - C145 >= -770
 R358: 400 C10 + 400 C35 + 400 C74 + 400 C105 + C141 - C143 <= 827
 R359: - 400 C10 - 400 C35 - 400 C74 - 400 C105 + C141 - C143 >= -773
 R360: 400 C12 + 400 C35 + 400 C76 + 400 C107 + C141 - C145 <= 827
 R361: - 400 C12 - 400 C35 - 400 C76 - 400 C107 + C141 - C145 >= -773
 R362: 400 C13 + 400 C38 + 400 C77 + 400 C114 + C141 - C143 <= 826
 R363: - 400 C13 - 400 C38 - 400 C77 - 400 C114 + C141 - C143 >= -774
 R364: 400 C15 + 400 C38 + 400 C79 + 400 C116 + C141 - C145 <= 826
 R365: - 400 C15 - 400 C38 - 400 C79 - 400 C116 + C141 - C145 >= -774
 R366: 400 C4 + 400 C45 + 400 C68 + 400 C87 - C143 + C147 <= 805
 R367: - 400 C4 - 400 C45 - 400 C68 - 400 C87 - C143 + C147 >= -795
 R368: 400 C6 + 400 C45 + 400 C70 + 400 C89 - C145 + C147 <= 805
 R369: - 400 C6 - 400 C45 - 400 C70 - 400 C89 - C145 + C147 >= -795
 R370: 400 C7 + 400 C48 + 400 C71 + 400 C96 - C143 + C147 <= 819
 R371: - 400 C7 - 400 C48 - 400 C71 - 400 C96 - C143 + C147 >= -781
 R372: 400 C9 + 400 C48 + 400 C73 + 400 C98 - C145 + C147 <= 819
 R373: - 400 C9 - 400 C48 - 400 C73 - 400 C98 - C145 + C147 >= -781
 R374: 400 C10 + 400 C51 + 400 C74 + 400 C105 - C143 + C147 <= 828
 R375: - 400 C10 - 400 C51 - 400 C74 - 400 C105 - C143 + C147 >= -772
 R376: 400 C12 + 400 C51 + 400 C76 + 400 C107 - C145 + C147 <= 828
 R377: - 400 C12 - 400 C51 - 400 C76 - 400 C107 - C145 + C147 >= -772
 R378: 400 C13 + 400 C54 + 400 C77 + 400 C114 - C143 + C147 <= 815
 R379: - 400 C13 - 400 C54 - 400 C77 - 400 C114 - C143 + C147 >= -785
 R380: 400 C15 + 400 C54 + 400 C79 + 400 C116 - C145 + C147 <= 815
 R381: - 400 C15 - 400 C54 - 400 C79 - 400 C116 - C145 + C147 >= -785
 R382: 400 C16 + 400 C44 + 400 C57 + 400 C90 + C141 - C146 <= 813
 R383: - 400 C16 - 400 C44 - 400 C57 - 400 C90 + C141 - C146 >= -787
 R384: 400 C18 + 400 C46 + 400 C57 + 400 C92 + C141 - C148 <= 813
 R385: - 400 C18 - 400 C46 - 400 C57 - 400 C92 + C141 - C148 >= -787
 R386: 400 C19 + 400 C47 + 400 C60 + 400 C99 + C141 - C146 <= 813
 R387: - 400 C19 - 400 C47 - 400 C60 - 400 C99 + C141 - C146 >= -787
 R388: 400 C21 + 400 C49 + 400 C60 + 400 C101 + C141 - C148 <= 813
 R389: - 400 C21 - 400 C49 - 400 C60 - 400 C101 + C141 - C148 >= -787
 R390: 400 C22 + 400 C50 + 400 C63 + 400 C108 + C141 - C146 <= 806
 R391: - 400 C22 - 400 C50 - 400 C63 - 400 C108 + C141 - C146 >= -794
 R392: 400 C24 + 400 C52 + 400 C63 + 400 C110 + C141 - C148 <= 806
 R393: - 400 C24 - 400 C52 - 400 C63 - 400 C110 + C141 - C148 >= -794
 R394: 400 C25 + 400 C53 + 400 C66 + 400 C117 + C141 - C146 <= 814
 R395: - 400 C25 - 400 C53 - 400 C66 - 400 C117 + C141 - C146 >= -786
 R396: 400 C27 + 400 C55 + 400 C66 + 400 C119 + C141 - C148 <= 814
 R397: - 400 C27 - 400 C55 - 400 C66 - 400 C119 + C141 - C148 >= -786
 R398: 400 C16 + 400 C44 + 400 C69 + 400 C90 + C144 - C146 <= 828
 R399: - 400 C16 - 400 C44 - 400 C69 - 400 C90 + C144 - C146 >= -772
 R400: 400 C18 + 400 C46 + 400 C69 + 400 C92 + C144 - C148 <= 828
 R401: - 400 C18 - 400 C46 - 400 C69 - 400 C92 + C144 - C148 >= -772
 R402: 400 C19 + 400 C47 + 400 C72 + 400 C99 + C144 - C146 <= 806
 R403: - 400 C19 - 400 C47 - 400 C72 - 400 C99 + C144 - C146 >= -794
 R404: 400 C21 + 400 C49 + 400 C72 + 400 C101 + C144 - C148 <= 806
 R405: - 400 C21 - 400 C49 - 400 C72 - 400 C101 + C144 - C148 >= -794
 R406: 400 C22 + 400 C50 + 400 C75 + 400 C108 + C144 - C146 <= 808
 R407: - 400 C22 - 400 C50 - 400 C75 - 400 C108 + C144 - C146 >= -792
 R408: 400 C24 + 400 C52 + 400 C75 + 400 C110 + C144 - C148 <= 808
 R409: - 400 C24 - 400 C52 - 400 C75 - 400 C110 + C144 - C148 >= -792
 R410: 400 C25 + 400 C53 + 400 C78 + 400 C117 + C144 - C146 <= 803
 R411: - 400 C25 - 400 C53 - 400 C78 - 400 C117 + C144 - C146 >= -797
 R412: 400 C27 + 400 C55 + 400 C78 + 400 C119 + C144 - C148 <= 803
 R413: - 400 C27 - 400 C55 - 400 C78 - 400 C119 + C144 - C148 >= -797
 R414: 100 C84 - C136 + C140 <= 107
 R415: - 100 C84 - C136 + C140 >= -93
 R416: 100 C85 - C136 + C141 <= 118
 R417: - 100 C85 - C136 + C141 >= -82
 R418: 100 C86 - C136 + C142 <= 130
 R419: - 100 C86 - C136 + C142 >= -70
 R420: 100 C93 - C137 + C140 <= 129
 R421: - 100 C93 - C137 + C140 >= -71
 R422: 100 C94 - C137 + C141 <= 126
 R423: - 100 C94 - C137 + C141 >= -74
 R424: 100 C95 - C137 + C142 <= 113
 R425: - 100 C95 - C137 + C142 >= -87
 R426: 100 C102 - C138 + C140 <= 115
 R427: - 100 C102 - C138 + C140 >= -85
 R428: 100 C103 - C138 + C141 <= 122
 R429: - 100 C103 - C138 + C141 >= -78
 R430: 100 C104 - C138 + C142 <= 103
 R431: - 100 C104 - C138 + C142 >= -97
 R432: 100 C111 - C139 + C140 <= 106
 R433: - 100 C111 - C139 + C140 >= -94
 R434: 100 C112 - C139 + C141 <= 121
 R435: - 100 C112 - C139 + C141 >= -79
 R436: 100 C113 - C139 + C142 <= 123
 R437: - 100 C113 - C139 + C142 >= -77
 R438: 100 C87 - C136 + C143 <= 129
 R439: - 100 C87 - C136 + C143 >= -71
 R440: 100 C88 - C136 + C144 <= 103
 R441: - 100 C88 - C136 + C144 >= -97
 R442: 100 C89 - C136 + C145 <= 102
 R443: - 100 C89 - C136 + C145 >= -98
 R444: 100 C96 - C137 + C143 <= 112
 R445: - 100 C96 - C137 + C143 >= -88
 R446: 100 C97 - C137 + C144 <= 120
 R447: - 100 C97 - C137 + C144 >= -80
 R448: 100 C98 - C137 + C145 <= 125
 R449: - 100 C98 - C137 + C145 >= -75
 R450: 100 C105 - C138 + C143 <= 120
 R451: - 100 C105 - C138 + C143 >= -80
 R452: 100 C106 - C138 + C144 <= 126
 R453: - 100 C106 - C138 + C144 >= -74
 R454: 100 C107 - C138 + C145 <= 102
 R455: - 100 C107 - C138 + C145 >= -98
 R456: 100 C114 - C139 + C143 <= 124
 R457: - 100 C114 - C139 + C143 >= -76
 R458: 100 C115 - C139 + C144 <= 105
 R459: - 100 C115 - C139 + C144 >= -95
 R460: 100 C116 - C139 + C145 <= 125
 R461: - 100 C116 - C139 + C145 >= -75
 R462: 100 C90 - C136 + C146 <= 106
 R463: - 100 C90 - C136 + C146 >= -94
 R464: 100 C91 - C136 + C147 <= 123
 R465: - 100 C91 - C136 + C147 >= -77
 R466: 100 C92 - C136 + C148 <= 102
 R467: - 100 C92 - C136 + C148 >= -98
 R468: 100 C99 - C137 + C146 <= 125
 R469: - 100 C99 - C137 + C146 >= -75
 R470: 100 C100 - C137 + C147 <= 107
 R471: - 100 C100 - C137 + C147 >= -93
 R472: 100 C101 - C137 + C148 <= 123
 R473: - 100 C101 - C137 + C148 >= -77
 R474: 100 C108 - C138 + C146 <= 124
 R475: - 100 C108 - C138 + C146 >= -76
 R476: 100 C109 - C138 + C147 <= 108
 R477: - 100 C109 - C138 + C147 >= -92
 R478: 100 C110 - C138 + C148 <= 125
 R479: - 100 C110 - C138 + C148 >= -75
 R480: 100 C117 - C139 + C146 <= 115
 R481: - 100 C117 - C139 + C146 >= -85
 R482: 100 C118 - C139 + C147 <= 126
 R483: - 100 C118 - C139 + C147 >= -74
 R484: 100 C119 - C139 + C148 <= 116
 R485: - 100 C119 - C139 + C148 >= -84
 R486: C140 - C141 <= -1
 R487: C141 - C142 <= -1
 R488: C143 - C144 <= -1
 R489: C144 - C145 <= -1
 R490: C146 - C147 <= -1
 R491: C147 - C148 <= -1
 R492: 30 C4 + 14 C5 + 13 C6 + 17 C16 + 8 C17 + C18 + 14 C28 + 19 C29 + C30
   + 18 C44 + 5 C45 + 6 C46 + 30 C56 + 13 C57 + 23 C58 + 16 C68 + 28 C69
   + 18 C70 + 7 C84 + 18 C85 + 30 C86 + 29 C87 + 3 C88 + 2 C89 + 6 C90
   + 23 C91 + 2 C92 <= 100
 R493: 25 C7 + 12 C8 + 10 C9 + 13 C19 + C20 + 21 C21 + 5 C31 + 30 C32
   + 18 C33 + 26 C47 + 19 C48 + 12 C49 + 8 C59 + 13 C60 + 14 C61 + 7 C71
   + 6 C72 + 18 C73 + 29 C93 + 26 C94 + 13 C95 + 12 C96 + 20 C97 + 25 C98
   + 25 C99 + 7 C100 + 23 C101 <= 100
 R494: 20 C10 + 18 C11 + 30 C12 + 4 C22 + 23 C23 + 5 C24 + 8 C34 + 27 C35
   + 10 C36 + 21 C50 + 28 C51 + 16 C52 + 5 C62 + 6 C63 + 29 C64 + 6 C74
   + 8 C75 + 12 C76 + 15 C102 + 22 C103 + 3 C104 + 20 C105 + 26 C106
   + 2 C107 + 24 C108 + 8 C109 + 25 C110 <= 100
 R495: 29 C13 + 15 C14 + 18 C15 + 3 C25 + 4 C26 + 29 C27 + 27 C37 + 26 C38
   + 29 C39 + 15 C53 + 15 C54 + 29 C55 + 13 C65 + 14 C66 + 29 C67 + 8 C77
   + 3 C78 + 9 C79 + 6 C111 + 21 C112 + 23 C113 + 24 C114 + 5 C115
   + 25 C116 + 15 C117 + 26 C118 + 16 C119 <= 100
Bounds
Binaries
 C0 C1 C2 C3 C4 C5 C6 C7 C8 C9 C10 C11 C12 C13 C14 C15 C16 C17 C18 C19 C20
 C21 C22 C23 C24 C25 C26 C27 C28 C29 C30 C31 C32 C33 C34 C35 C36 C37 C38
 C39 C40 C41 C42 C43 C44 C45 C46 C47 C48 C49 C50 C51 C52 C53 C54 C55 C56
 C57 C58 C59 C60 C61 C62 C63 C64 C65 C66 C67 C68 C69 C70 C71 C72 C73 C74
 C75 C76 C77 C78 C79 C80 C81 C82 C83 C84 C85 C86 C87 C88 C89 C90 C91 C92
 C93 C94 C95 C96 C97 C98 C99 C100 C101 C102 C103 C104 C105 C106 C107 C108
 C109 C110 C111 C112 C113 C114 C115 C116 C117 C118 C119 C120 C121 C122 C123
 C124 C125 C126 C127 C128 C129 C130 C131 C132 C133 C134 C135
End
